p edge 60 371
e 1 5
e 1 11
e 1 17
e 1 25
e 1 26
e 1 29
e 1 31
e 1 34
e 1 39
e 1 44
e 1 50
e 1 58
e 2 4
e 2 9
e 2 10
e 2 18
e 2 21
e 2 22
e 2 23
e 2 28
e 2 31
e 2 37
e 2 38
e 2 40
e 2 44
e 2 45
e 2 47
e 3 17
e 3 22
e 3 26
e 3 27
e 3 33
e 3 39
e 3 42
e 3 50
e 4 6
e 4 9
e 4 10
e 4 11
e 4 18
e 4 19
e 4 20
e 4 22
e 4 24
e 4 25
e 4 30
e 4 33
e 4 36
e 4 37
e 4 46
e 4 56
e 5 9
e 5 14
e 5 17
e 5 27
e 5 28
e 5 30
e 5 41
e 5 44
e 5 46
e 5 48
e 5 52
e 5 55
e 5 56
e 5 59
e 6 9
e 6 10
e 6 11
e 6 17
e 6 32
e 6 43
e 6 49
e 6 52
e 7 8
e 7 12
e 7 13
e 7 16
e 7 20
e 7 24
e 7 28
e 7 31
e 7 38
e 7 43
e 7 44
e 7 47
e 7 55
e 8 12
e 8 13
e 8 16
e 8 17
e 8 35
e 8 43
e 8 53
e 8 55
e 8 59
e 9 11
e 9 14
e 9 16
e 9 17
e 9 19
e 9 22
e 9 24
e 9 27
e 9 31
e 9 38
e 9 40
e 9 43
e 9 44
e 9 45
e 9 48
e 9 54
e 10 19
e 10 20
e 10 30
e 10 37
e 10 41
e 10 43
e 10 49
e 10 53
e 10 55
e 11 13
e 11 14
e 11 19
e 11 25
e 11 33
e 11 42
e 11 46
e 11 49
e 11 50
e 11 53
e 11 56
e 12 15
e 12 16
e 12 18
e 12 19
e 12 22
e 12 28
e 12 30
e 12 47
e 12 50
e 12 56
e 12 59
e 13 14
e 13 16
e 13 18
e 13 23
e 13 34
e 13 38
e 13 39
e 13 43
e 13 47
e 13 53
e 13 56
e 13 58
e 13 59
e 14 16
e 14 19
e 14 39
e 14 41
e 14 45
e 14 46
e 14 54
e 15 24
e 15 27
e 15 28
e 15 29
e 15 32
e 15 37
e 15 38
e 15 39
e 15 40
e 15 43
e 15 60
e 16 17
e 16 18
e 16 28
e 16 33
e 16 34
e 16 45
e 16 48
e 16 50
e 16 56
e 16 58
e 16 59
e 17 22
e 17 36
e 17 38
e 17 39
e 17 40
e 17 49
e 17 57
e 18 33
e 18 37
e 18 42
e 18 49
e 18 58
e 19 20
e 19 24
e 19 25
e 19 27
e 19 33
e 19 35
e 19 42
e 19 54
e 19 58
e 20 22
e 20 23
e 20 40
e 20 41
e 20 49
e 21 29
e 21 31
e 21 40
e 21 46
e 21 50
e 21 53
e 22 32
e 22 43
e 22 46
e 22 52
e 22 53
e 23 29
e 23 37
e 23 45
e 23 48
e 23 50
e 23 51
e 23 56
e 23 59
e 24 28
e 24 29
e 24 48
e 24 60
e 25 26
e 25 27
e 25 34
e 25 36
e 25 38
e 25 44
e 25 45
e 25 46
e 25 50
e 25 53
e 26 40
e 26 48
e 26 52
e 26 53
e 26 58
e 27 32
e 27 43
e 27 49
e 27 50
e 27 55
e 27 58
e 27 59
e 28 29
e 28 33
e 28 37
e 28 42
e 28 57
e 28 60
e 29 34
e 29 40
e 29 41
e 29 52
e 29 54
e 29 55
e 30 31
e 30 33
e 30 38
e 30 39
e 30 40
e 30 43
e 31 36
e 31 38
e 31 41
e 31 42
e 31 43
e 31 47
e 31 49
e 31 51
e 31 57
e 32 39
e 32 43
e 32 44
e 32 49
e 32 51
e 32 59
e 33 35
e 33 37
e 33 41
e 33 42
e 33 43
e 33 52
e 34 36
e 34 44
e 34 45
e 34 48
e 34 55
e 35 41
e 35 43
e 35 45
e 35 46
e 35 54
e 35 58
e 36 43
e 36 49
e 36 60
e 37 41
e 37 43
e 37 45
e 37 59
e 38 44
e 38 51
e 38 52
e 38 54
e 38 55
e 38 60
e 39 41
e 39 43
e 39 52
e 39 55
e 39 60
e 40 43
e 40 44
e 40 49
e 40 51
e 40 52
e 40 53
e 40 57
e 41 45
e 41 51
e 41 52
e 41 55
e 42 46
e 42 47
e 42 53
e 42 55
e 42 58
e 43 46
e 43 58
e 44 45
e 44 47
e 44 57
e 44 58
e 44 59
e 45 50
e 45 51
e 45 58
e 46 48
e 46 50
e 46 51
e 46 55
e 46 56
e 47 49
e 47 50
e 47 58
e 48 56
e 48 57
e 48 58
e 49 57
e 50 60
e 51 52
e 51 53
e 51 58
e 52 57
e 53 57
e 53 60
e 54 56
e 56 59
e 57 58